(set-option :print-success false)
(set-logic QF_UF)
(declare-sort x30 0)
(declare-sort x63 0)
(declare-fun x140 () x63)
(declare-fun x131 () x63)
(declare-fun x48 (x63 x63) x63)
(declare-fun x134 () x63)
(declare-fun x11 (x63 x63) x63)
(declare-fun x139 () x63)
(declare-fun x125 () x63)
(assert (let ((x108 (x11 x125 x134)) (x62 (x11 x134 x140)) (x80 (x11 x134 x139)) (x88 (x11 x131 x140)) (x9 (x11 x134 x125)) (x39 (x11 x131 x125)) (x6 (x11 x131 x139)) (x55 (x11 x139 x131)) (x25 (x11 x125 x125)) (x94 (x11 x134 x134)) (x117 (x11 x140 x140)) (x19 (x11 x140 x131)) (x18 (x11 x140 x125)) (x40 (x11 x139 x125)) (x119 (x11 x134 x131)) (x22 (x11 x139 x140)) (x97 (x11 x140 x134)) (x58 (x11 x139 x139)) (x85 (x11 x125 x140)) (x156 (x11 x125 x139)) (x109 (x11 x125 x131)) (x91 (x11 x131 x131)) (x68 (x11 x140 x139)) (x73 (x11 x131 x134)) (x43 (x11 x139 x134))) (or (and (and (not (= (x11 x88 x88) x140)) (and (and (not (= (x11 x6 x6) x139)) (not (= (x11 x73 x73) x134))) (not (= x125 (x11 x39 x39))))) (not (= x131 (x11 x91 x91)))) (or (and (and (not (= (x11 x117 x117) x140)) (and (and (not (= (x11 x68 x68) x139)) (not (= x134 (x11 x97 x97)))) (not (= (x11 x18 x18) x125)))) (not (= x131 (x11 x19 x19)))) (or (or (and (not (= x131 (x11 x119 x119))) (and (and (and (not (= (x11 x94 x94) x134)) (not (= (x11 x80 x80) x139))) (not (= x125 (x11 x9 x9)))) (not (= x140 (x11 x62 x62))))) (and (and (and (not (= x125 (x11 x40 x40))) (and (not (= x139 (x11 x58 x58))) (not (= x134 (x11 x43 x43))))) (not (= (x11 x22 x22) x140))) (not (= x131 (x11 x55 x55))))) (and (not (= (x11 x109 x109) x131)) (and (and (not (= x125 (x11 x25 x25))) (and (not (= x134 (x11 x108 x108))) (not (= (x11 x156 x156) x139)))) (not (= (x11 x85 x85) x140)))))))))
(assert (let ((x40 (= (x11 x125 x125) x125)) (x55 (= (x11 x131 x131) x131)) (x22 (= (x11 x140 x140) x140)) (x94 (= x134 (x11 x134 x134))) (x9 (= (x11 x139 x139) x139))) (let ((x119 (not x40)) (x58 (not x55)) (x43 (not x22)) (x62 (not x9)) (x80 (not x94))) (or (or (or (and x43 (= x131 (x11 x131 x140))) (or (and (= x131 (x11 x131 x125)) x119) (or (and (= x131 (x11 x131 x139)) x62) (and x80 (= (x11 x131 x134) x131))))) (and x55 x58)) (or (or (and x58 (= (x11 x140 x131) x140)) (or (or (and x119 (= x140 (x11 x140 x125))) (or (and (= x140 (x11 x140 x139)) x62) (and (= (x11 x140 x134) x140) x80))) (and x43 x22))) (or (or (or (or (and x43 (= (x11 x134 x140) x134)) (or (and (= x134 (x11 x134 x125)) x119) (or (and x94 x80) (and x62 (= (x11 x134 x139) x134))))) (and (= (x11 x134 x131) x134) x58)) (or (and x58 (= x139 (x11 x139 x131))) (or (and (= x139 (x11 x139 x140)) x43) (or (and (= (x11 x139 x125) x139) x119) (or (and x80 (= x139 (x11 x139 x134))) (and x9 x62)))))) (or (and x58 (= (x11 x125 x131) x125)) (or (and x43 (= (x11 x125 x140) x125)) (or (and x40 x119) (or (and (= (x11 x125 x134) x125) x80) (and (= (x11 x125 x139) x125) x62)))))))))))
(assert (or (and (= x131 (x11 (x11 x131 x131) x131)) (and (and (and (= (x11 (x11 x139 x131) x131) x139) (= x134 (x11 (x11 x134 x131) x131))) (= x125 (x11 (x11 x125 x131) x131))) (= x140 (x11 (x11 x140 x131) x131)))) (or (and (= (x11 (x11 x131 x140) x140) x131) (and (= (x11 (x11 x140 x140) x140) x140) (and (= x125 (x11 (x11 x125 x140) x140)) (and (= x134 (x11 (x11 x134 x140) x140)) (= (x11 (x11 x139 x140) x140) x139))))) (or (and (= (x11 (x11 x131 x125) x125) x131) (and (and (and (= x134 (x11 (x11 x134 x125) x125)) (= x139 (x11 (x11 x139 x125) x125))) (= x125 (x11 (x11 x125 x125) x125))) (= x140 (x11 (x11 x140 x125) x125)))) (or (and (and (and (= x125 (x11 (x11 x125 x134) x134)) (and (= x139 (x11 (x11 x139 x134) x134)) (= (x11 (x11 x134 x134) x134) x134))) (= x140 (x11 (x11 x140 x134) x134))) (= (x11 (x11 x131 x134) x134) x131)) (and (= (x11 (x11 x131 x139) x139) x131) (and (and (= x125 (x11 (x11 x125 x139) x139)) (and (= x139 (x11 (x11 x139 x139) x139)) (= (x11 (x11 x134 x139) x139) x134))) (= (x11 (x11 x140 x139) x139) x140))))))))
(assert (let ((x156 (x11 x125 x139)) (x18 (x11 x140 x125)) (x40 (x11 x139 x125)) (x68 (x11 x140 x139)) (x19 (x11 x140 x131)) (x119 (x11 x134 x131)) (x55 (x11 x139 x131)) (x25 (x11 x125 x125)) (x73 (x11 x131 x134)) (x108 (x11 x125 x134)) (x62 (x11 x134 x140)) (x85 (x11 x125 x140)) (x117 (x11 x140 x140)) (x6 (x11 x131 x139)) (x97 (x11 x140 x134)) (x88 (x11 x131 x140)) (x109 (x11 x125 x131)) (x94 (x11 x134 x134)) (x43 (x11 x139 x134)) (x22 (x11 x139 x140)) (x39 (x11 x131 x125)) (x9 (x11 x134 x125)) (x58 (x11 x139 x139)) (x80 (x11 x134 x139)) (x91 (x11 x131 x131))) (and (and (and (and (and (and (and (and (or (or (or (= x94 x125) (or (= x94 x139) (= x94 x134))) (= x140 x94)) (= x94 x131)) (or (= x80 x131) (or (= x140 x80) (or (= x80 x125) (or (= x80 x134) (= x139 x80)))))) (or (or (or (= x9 x125) (or (= x9 x139) (= x134 x9))) (= x140 x9)) (= x131 x9))) (or (or (or (= x125 x62) (or (= x62 x134) (= x62 x139))) (= x62 x140)) (= x62 x131))) (or (= x119 x131) (or (or (= x125 x119) (or (= x139 x119) (= x134 x119))) (= x119 x140)))) (and (or (= x55 x131) (or (= x140 x55) (or (or (= x55 x139) (= x55 x134)) (= x125 x55)))) (and (and (or (or (= x140 x40) (or (= x125 x40) (or (= x40 x139) (= x134 x40)))) (= x131 x40)) (and (or (= x131 x58) (or (= x140 x58) (or (= x125 x58) (or (= x58 x134) (= x58 x139))))) (or (= x43 x131) (or (= x43 x140) (or (= x43 x125) (or (= x43 x134) (= x139 x43))))))) (or (or (= x140 x22) (or (= x125 x22) (or (= x139 x22) (= x134 x22)))) (= x22 x131))))) (and (or (or (or (= x125 x109) (or (= x134 x109) (= x109 x139))) (= x109 x140)) (= x131 x109)) (and (or (= x85 x131) (or (= x140 x85) (or (= x85 x125) (or (= x139 x85) (= x134 x85))))) (and (or (or (= x140 x25) (or (or (= x25 x139) (= x134 x25)) (= x25 x125))) (= x25 x131)) (and (or (or (or (or (= x156 x139) (= x156 x134)) (= x125 x156)) (= x156 x140)) (= x131 x156)) (or (= x131 x108) (or (or (= x108 x125) (or (= x139 x108) (= x108 x134))) (= x140 x108)))))))) (and (and (and (and (or (or (= x140 x68) (or (= x125 x68) (or (= x68 x134) (= x139 x68)))) (= x68 x131)) (or (or (= x140 x97) (or (= x97 x125) (or (= x97 x134) (= x97 x139)))) (= x131 x97))) (or (= x18 x131) (or (= x18 x140) (or (or (= x18 x139) (= x134 x18)) (= x125 x18))))) (or (= x117 x131) (or (or (or (= x117 x139) (= x117 x134)) (= x125 x117)) (= x117 x140)))) (or (= x19 x131) (or (or (= x125 x19) (or (= x19 x134) (= x139 x19))) (= x140 x19))))) (and (and (and (or (or (or (= x125 x39) (or (= x139 x39) (= x134 x39))) (= x140 x39)) (= x131 x39)) (and (or (or (= x140 x73) (or (= x73 x125) (or (= x73 x134) (= x73 x139)))) (= x131 x73)) (or (or (= x140 x6) (or (or (= x6 x134) (= x139 x6)) (= x125 x6))) (= x131 x6)))) (or (= x88 x131) (or (= x140 x88) (or (= x88 x125) (or (= x139 x88) (= x134 x88)))))) (or (= x91 x131) (or (or (or (= x139 x91) (= x91 x134)) (= x91 x125)) (= x140 x91)))))))
(assert (or (and (and (and (not (= (x11 (x11 x125 x131) x131) x125)) (and (not (= x134 (x11 (x11 x134 x131) x131))) (not (= x139 (x11 (x11 x139 x131) x131))))) (not (= (x11 (x11 x140 x131) x131) x140))) (not (= (x11 (x11 x131 x131) x131) x131))) (or (or (or (and (not (= x131 (x11 (x11 x131 x134) x134))) (and (and (and (not (= x134 (x11 (x11 x134 x134) x134))) (not (= (x11 (x11 x139 x134) x134) x139))) (not (= (x11 (x11 x125 x134) x134) x125))) (not (= (x11 (x11 x140 x134) x134) x140)))) (and (not (= x131 (x11 (x11 x131 x139) x139))) (and (not (= x140 (x11 (x11 x140 x139) x139))) (and (and (not (= (x11 (x11 x134 x139) x139) x134)) (not (= x139 (x11 (x11 x139 x139) x139)))) (not (= x125 (x11 (x11 x125 x139) x139))))))) (and (not (= (x11 (x11 x131 x125) x125) x131)) (and (not (= x140 (x11 (x11 x140 x125) x125))) (and (not (= x125 (x11 (x11 x125 x125) x125))) (and (not (= x134 (x11 (x11 x134 x125) x125))) (not (= x139 (x11 (x11 x139 x125) x125)))))))) (and (and (not (= x140 (x11 (x11 x140 x140) x140))) (and (and (not (= x139 (x11 (x11 x139 x140) x140))) (not (= (x11 (x11 x134 x140) x140) x134))) (not (= x125 (x11 (x11 x125 x140) x140))))) (not (= (x11 (x11 x131 x140) x140) x131))))))
(assert (let ((x26 (x11 x139 x139)) (x38 (x11 x140 x139)) (x110 (x11 x140 x125)) (x101 (x11 x134 x139)) (x155 (x11 x134 x134)) (x20 (x11 x131 x140)) (x86 (x11 x125 x134)) (x57 (x11 x139 x140)) (x32 (x11 x125 x140)) (x95 (x11 x131 x134)) (x102 (x11 x125 x131)) (x17 (x11 x139 x131)) (x124 (x11 x131 x125)) (x144 (x11 x125 x125)) (x59 (x11 x131 x131)) (x31 (x11 x140 x131)) (x130 (x11 x134 x125)) (x78 (x11 x139 x125)) (x100 (x11 x140 x140)) (x146 (x11 x125 x139)) (x137 (x11 x134 x140)) (x122 (x11 x139 x134)) (x54 (x11 x131 x139)) (x98 (x11 x134 x131)) (x90 (x11 x140 x134))) (let ((x119 (not (= x134 x86))) (x25 (not (= x134 x57))) (x8 (not (= x95 x131))) (x29 (not (= x139 x78))) (x42 (not (= x122 x139))) (x136 (not (= x125 x124))) (x80 (not (= x122 x134))) (x39 (not (= x134 x20))) (x85 (not (= x110 x134))) (x157 (not (= x137 x140))) (x74 (not (= x26 x139))) (x45 (not (= x125 x59))) (x93 (not (= x124 x140))) (x148 (not (= x139 x98))) (x73 (not (= x124 x134))) (x141 (not (= x32 x139))) (x118 (not (= x139 x90))) (x6 (not (= x102 x134))) (x75 (not (= x78 x125))) (x60 (not (= x139 x155))) (x2 (not (= x125 x98))) (x28 (not (= x125 x110))) (x33 (not (= x130 x140))) (x152 (not (= x26 x140))) (x24 (not (= x20 x131))) (x156 (not (= x38 x134))) (x121 (not (= x139 x100))) (x123 (not (= x86 x125))) (x82 (not (= x144 x125))) (x52 (not (= x110 x140))) (x87 (not (= x155 x131))) (x40 (not (= x78 x134))) (x94 (not (= x155 x134))) (x68 (not (= x134 x95))) (x7 (not (= x38 x125))) (x10 (not (= x125 x17))) (x84 (not (= x125 x102))) (x71 (not (= x139 x110))) (x64 (not (= x155 x125))) (x147 (not (= x26 x131))) (x103 (not (= x122 x125))) (x53 (not (= x155 x140))) (x108 (not (= x134 x137))) (x153 (not (= x137 x125))) (x132 (not (= x140 x54))) (x106 (not (= x90 x131))) (x22 (not (= x144 x134))) (x126 (not (= x140 x17))) (x145 (not (= x54 x139))) (x83 (not (= x59 x139))) (x67 (not (= x125 x101))) (x77 (not (= x31 x140))) (x112 (not (= x98 x131))) (x49 (not (= x78 x140))) (x91 (not (= x134 x59))) (x154 (not (= x31 x125))) (x23 (not (= x130 x131))) (x56 (not (= x125 x100))) (x113 (not (= x38 x139))) (x129 (not (= x125 x146))) (x36 (not (= x139 x95))) (x37 (not (= x139 x57))) (x5 (not (= x140 x146))) (x159 (not (= x131 x122))) (x105 (not (= x125 x95))) (x79 (not (= x146 x139))) (x117 (not (= x134 x54))) (x96 (not (= x137 x131))) (x97 (not (= x134 x100))) (x114 (not (= x125 x26))) (x120 (not (= x131 x17))) (x13 (not (= x140 x144))) (x47 (not (= x131 x78))) (x128 (not (= x146 x131))) (x72 (not (= x38 x131))) (x12 (not (= x131 x59))) (x61 (not (= x131 x101))) (x133 (not (= x140 x59))) (x43 (not (= x130 x134))) (x81 (not (= x140 x20))) (x3 (not (= x90 x140))) (x76 (not (= x140 x32))) (x111 (not (= x54 x131))) (x41 (not (= x20 x125))) (x27 (not (= x131 x86))) (x15 (not (= x95 x140))) (x66 (not (= x139 x102))) (x115 (not (= x57 x140))) (x151 (not (= x102 x131))) (x14 (not (= x139 x144))) (x21 (not (= x140 x101))) (x158 (not (= x139 x17))) (x18 (not (= x134 x98))) (x143 (not (= x130 x125))) (x16 (not (= x125 x54))) (x65 (not (= x130 x139))) (x138 (not (= x137 x139))) (x1 (not (= x100 x140))) (x150 (not (= x131 x124))) (x109 (not (= x32 x134))) (x34 (not (= x20 x139))) (x89 (not (= x125 x32))) (x69 (not (= x86 x139))) (x92 (not (= x125 x90))) (x149 (not (= x110 x131))) (x127 (not (= x98 x140))) (x55 (not (= x134 x90))) (x88 (not (= x134 x31))) (x50 (not (= x140 x38))) (x35 (not (= x131 x144))) (x107 (not (= x139 x124))) (x70 (not (= x57 x131))) (x19 (not (= x134 x17))) (x44 (not (= x139 x101))) (x4 (not (= x57 x125))) (x9 (not (= x134 x101))) (x142 (not (= x102 x140))) (x51 (not (= x139 x31))) (x58 (not (= x134 x146))) (x62 (not (= x134 x26))) (x104 (not (= x131 x100))) (x99 (not (= x31 x131))) (x135 (not (= x140 x86))) (x46 (not (= x32 x131))) (x116 (not (= x140 x122)))) (or (and (and (and (or x24 x99) (and (or x150 x151) (and (or x8 x112) (or x120 x111)))) (or x12 x12)) (and (and (and (and (or x46 x149) (and (and (or x27 x23) (or x128 x47)) (or x35 x35))) (or x150 x151)) (and (and (or x8 x112) (and (and (and (or x87 x87) (or x61 x159)) (or x27 x23)) (or x106 x96))) (and (or x120 x111) (and (or x70 x72) (and (and (or x159 x61) (or x147 x147)) (or x47 x128)))))) (and (or x24 x99) (and (or x104 x104) (and (and (or x70 x72) (or x96 x106)) (or x149 x46)))))) (or (or (or (and (and (and (or x88 x39) (and (and (or x85 x109) (and (or x156 x25) (or x108 x55))) (or x97 x97))) (and (and (and (or x18 x68) (and (and (and (or x94 x94) (or x80 x9)) (or x119 x43)) (or x55 x108))) (and (and (and (or x58 x40) (and (or x62 x62) (or x9 x80))) (or x25 x156)) (or x117 x19))) (and (and (or x85 x109) (and (and (or x58 x40) (or x119 x43)) (or x22 x22))) (or x6 x73)))) (and (or x91 x91) (and (and (or x6 x73) (and (or x68 x18) (or x117 x19))) (or x88 x39)))) (and (and (and (and (and (and (or x118 x138) (and (and (or x60 x60) (or x42 x44)) (or x65 x69))) (or x148 x36)) (and (and (and (and (or x74 x74) (or x44 x42)) (or x79 x29)) (or x37 x113)) (or x145 x158))) (and (or x107 x66) (and (and (or x14 x14) (and (or x69 x65) (or x79 x29))) (or x71 x141)))) (and (or x51 x34) (and (and (or x71 x141) (and (or x37 x113) (or x118 x138))) (or x121 x121)))) (and (or x83 x83) (and (and (or x107 x66) (and (or x145 x158) (or x36 x148))) (or x51 x34))))) (and (and (and (or x41 x154) (and (or x84 x136) (and (or x2 x105) (or x16 x10)))) (or x45 x45)) (and (and (and (or x84 x136) (and (and (and (or x75 x129) (or x123 x143)) (or x82 x82)) (or x89 x28))) (and (and (or x105 x2) (and (and (or x143 x123) (and (or x103 x67) (or x64 x64))) (or x153 x92))) (and (or x10 x16) (and (or x4 x7) (and (and (or x114 x114) (or x103 x67)) (or x75 x129)))))) (and (or x41 x154) (and (and (and (or x153 x92) (or x4 x7)) (or x28 x89)) (or x56 x56)))))) (and (and (and (or x81 x77) (and (or x1 x1) (and (or x76 x52) (and (or x115 x50) (or x157 x3))))) (and (and (and (and (or x50 x115) (and (and (or x116 x21) (or x152 x152)) (or x49 x5))) (or x126 x132)) (and (and (or x3 x157) (and (and (or x21 x116) (or x53 x53)) (or x135 x33))) (or x15 x127))) (and (or x93 x142) (and (or x52 x76) (and (or x13 x13) (and (or x33 x135) (or x5 x49))))))) (and (and (and (or x142 x93) (and (or x126 x132) (or x127 x15))) (or x77 x81)) (or x133 x133))))))))
(assert (let ((x62 (x11 x140 x140)) (x119 (x11 x131 x131)) (x9 (x11 x125 x125)) (x80 (x11 x139 x139)) (x94 (x11 x134 x134))) (or (and (not (= x131 x119)) (and (not (= x62 x131)) (and (and (not (= x94 x131)) (not (= x131 x80))) (not (= x131 x9))))) (or (or (and (not (= x125 x119)) (and (and (and (not (= x125 x94)) (not (= x80 x125))) (not (= x125 x9))) (not (= x125 x62)))) (or (and (not (= x119 x139)) (and (and (not (= x9 x139)) (and (not (= x80 x139)) (not (= x139 x94)))) (not (= x62 x139)))) (and (and (and (not (= x134 x9)) (and (not (= x134 x94)) (not (= x80 x134)))) (not (= x62 x134))) (not (= x134 x119))))) (and (not (= x140 x119)) (and (not (= x62 x140)) (and (not (= x140 x9)) (and (not (= x94 x140)) (not (= x140 x80))))))))))
(assert (or (and (not (= (x11 x131 (x11 x131 x131)) x131)) (and (and (and (not (= x134 (x11 x131 (x11 x131 x134)))) (not (= (x11 x131 (x11 x131 x139)) x139))) (not (= (x11 x131 (x11 x131 x125)) x125))) (not (= (x11 x131 (x11 x131 x140)) x140)))) (or (or (and (not (= x131 (x11 x125 (x11 x125 x131)))) (and (and (and (not (= x139 (x11 x125 (x11 x125 x139)))) (not (= x134 (x11 x125 (x11 x125 x134))))) (not (= x125 (x11 x125 (x11 x125 x125))))) (not (= (x11 x125 (x11 x125 x140)) x140)))) (or (and (not (= (x11 x139 (x11 x139 x131)) x131)) (and (and (and (not (= x134 (x11 x139 (x11 x139 x134)))) (not (= (x11 x139 (x11 x139 x139)) x139))) (not (= (x11 x139 (x11 x139 x125)) x125))) (not (= x140 (x11 x139 (x11 x139 x140)))))) (and (and (and (not (= (x11 x134 (x11 x134 x125)) x125)) (and (not (= x139 (x11 x134 (x11 x134 x139)))) (not (= x134 (x11 x134 (x11 x134 x134)))))) (not (= (x11 x134 (x11 x134 x140)) x140))) (not (= (x11 x134 (x11 x134 x131)) x131))))) (and (and (not (= x140 (x11 x140 (x11 x140 x140)))) (and (not (= (x11 x140 (x11 x140 x125)) x125)) (and (not (= x139 (x11 x140 (x11 x140 x139)))) (not (= (x11 x140 (x11 x140 x134)) x134))))) (not (= x131 (x11 x140 (x11 x140 x131))))))))
(assert (let ((x117 (x11 x131 x139)) (x73 (x11 x131 x125)) (x9 (x11 x134 x139)) (x40 (x11 x139 x125)) (x25 (x11 x139 x140)) (x156 (x11 x140 x139)) (x74 (x11 x140 x134)) (x97 (x11 x140 x140)) (x39 (x11 x131 x140)) (x155 (x11 x134 x134)) (x18 (x11 x134 x131)) (x101 (x11 x139 x134)) (x108 (x11 x134 x140)) (x43 (x11 x134 x125)) (x19 (x11 x139 x131)) (x6 (x11 x125 x131)) (x58 (x11 x125 x139)) (x22 (x11 x125 x125)) (x85 (x11 x140 x125)) (x109 (x11 x125 x140)) (x88 (x11 x140 x131)) (x91 (x11 x131 x131)) (x54 (x11 x131 x134)) (x90 (x11 x125 x134)) (x62 (x11 x139 x139))) (let ((x68 (= x54 x134)) (x26 (= x125 x73)) (x137 (= x117 x139)) (x80 (= x101 x134)) (x146 (= x140 x25)) (x94 (= x155 x134)) (x42 (= x22 x125)) (x17 (= x39 x140)) (x79 (= x6 x131)) (x144 (= x91 x131)) (x44 (= x85 x125)) (x65 (= x19 x131)) (x60 (= x9 x139)) (x130 (= x139 x58)) (x86 (= x156 x139)) (x69 (= x18 x131)) (x55 (= x134 x74)) (x122 (= x62 x139)) (x38 (= x140 x97)) (x57 (= x109 x140)) (x98 (= x125 x43)) (x78 (= x108 x140)) (x119 (= x90 x134)) (x29 (= x88 x131)) (x95 (= x40 x125))) (and (and (or (or (and (= x91 x140) x144) (or (or (or (and (= x117 x140) x65) (and (= x54 x140) x69)) (and (= x140 x73) x79)) (and x29 x17))) (or (or (or (or (or (and (= x140 x74) x78) (and x146 (= x156 x140))) (and x57 (= x85 x140))) (and x38 x38)) (and (= x140 x88) x17)) (or (or (or (or (or (or (and (= x140 x101) x60) (and x122 (= x62 x140))) (and (= x140 x40) x130)) (and x86 x146)) (and (= x140 x19) x137)) (or (and (= x140 x18) x68) (or (or (or (and x80 (= x9 x140)) (and x94 (= x155 x140))) (and (= x43 x140) x119)) (and x55 x78)))) (or (and (= x6 x140) x26) (or (and x44 x57) (or (or (and (= x58 x140) x95) (and (= x90 x140) x98)) (and (= x140 x22) x42))))))) (and (or (or (or (and (= x125 x88) x17) (or (or (and x44 x57) (or (and (= x156 x125) x146) (and (= x125 x74) x78))) (and (= x125 x97) x38))) (or (or (or (and (= x19 x125) x137) (or (or (or (and x60 (= x101 x125)) (and x122 (= x62 x125))) (and x130 x95)) (and (= x25 x125) x86))) (or (and x68 (= x125 x18)) (or (or (or (and x80 (= x125 x9)) (and x94 (= x125 x155))) (and x98 x119)) (and (= x108 x125) x55)))) (or (or (or (and x42 x42) (or (and x95 (= x125 x58)) (and x98 (= x125 x90)))) (and x44 (= x125 x109))) (and (= x6 x125) x26)))) (or (or (or (or (and (= x125 x54) x69) (and (= x125 x117) x65)) (and x79 x26)) (and x29 (= x125 x39))) (and (= x91 x125) x144))) (and (or (or (or (and x29 (= x139 x39)) (or (or (and x65 x137) (and (= x139 x54) x69)) (and x79 (= x139 x73)))) (and x144 (= x139 x91))) (or (or (and x17 (= x139 x88)) (or (or (or (and (= x74 x139) x78) (and x86 x146)) (and (= x85 x139) x57)) (and (= x139 x97) x38))) (or (or (or (or (or (and x119 (= x139 x43)) (or (and (= x139 x155) x94) (and x60 x80))) (and (= x139 x108) x55)) (and (= x139 x18) x68)) (or (and x137 (= x19 x139)) (or (and x86 (= x25 x139)) (or (or (and x122 x122) (and x60 (= x139 x101))) (and (= x40 x139) x130))))) (or (and x26 (= x139 x6)) (or (and x44 (= x139 x109)) (or (and (= x139 x22) x42) (or (and (= x139 x90) x98) (and x95 x130)))))))) (or (or (or (or (and x26 (= x6 x134)) (or (or (and (= x22 x134) x42) (or (and x119 x98) (and x95 (= x134 x58)))) (and x44 (= x109 x134)))) (or (or (and (= x134 x18) x68) (or (or (and x119 (= x134 x43)) (or (and (= x9 x134) x80) (and x94 x94))) (and x55 (= x108 x134)))) (or (or (or (and (= x40 x134) x130) (or (and x122 (= x62 x134)) (and x80 x60))) (and x86 (= x134 x25))) (and x137 (= x134 x19))))) (or (and (= x88 x134) x17) (or (or (and (= x134 x85) x57) (or (and x55 x78) (and (= x156 x134) x146))) (and (= x134 x97) x38)))) (or (and (= x134 x91) x144) (or (or (or (and x65 (= x134 x117)) (and x69 x68)) (and x79 (= x134 x73))) (and (= x39 x134) x29))))))) (or (or (and x144 x144) (or (and x29 (= x39 x131)) (or (and x79 (= x131 x73)) (or (and (= x54 x131) x69) (and x65 (= x131 x117)))))) (or (or (or (or (or (and (= x131 x156) x146) (and (= x131 x74) x78)) (and (= x131 x85) x57)) (and (= x131 x97) x38)) (and x29 x17)) (or (or (or (or (and (= x22 x131) x42) (or (and (= x131 x90) x98) (and (= x131 x58) x95))) (and (= x131 x109) x44)) (and x26 x79)) (or (or (or (or (or (and (= x131 x9) x80) (and x94 (= x155 x131))) (and x119 (= x43 x131))) (and (= x108 x131) x55)) (and x69 x68)) (or (and x137 x65) (or (and x86 (= x131 x25)) (or (or (and (= x101 x131) x60) (and (= x62 x131) x122)) (and (= x40 x131) x130))))))))))))
(assert (let ((x58 (x11 x139 x139)) (x94 (x11 x134 x134)) (x73 (x11 x134 x131)) (x25 (x11 x125 x125)) (x39 (x11 x125 x131)) (x85 (x11 x140 x125)) (x43 (x11 x134 x139)) (x88 (x11 x140 x131)) (x6 (x11 x139 x131)) (x108 (x11 x134 x125)) (x91 (x11 x131 x131)) (x68 (x11 x139 x140)) (x18 (x11 x125 x140)) (x109 (x11 x131 x125)) (x19 (x11 x131 x140)) (x40 (x11 x125 x139)) (x156 (x11 x139 x125)) (x22 (x11 x140 x139)) (x119 (x11 x131 x134)) (x9 (x11 x125 x134)) (x80 (x11 x139 x134)) (x55 (x11 x131 x139)) (x117 (x11 x140 x140)) (x62 (x11 x140 x134)) (x97 (x11 x134 x140))) (or (and (not (= x131 (x11 x91 x91))) (and (and (and (not (= (x11 x6 x6) x139)) (not (= (x11 x73 x73) x134))) (not (= (x11 x39 x39) x125))) (not (= (x11 x88 x88) x140)))) (or (and (and (and (and (not (= (x11 x97 x97) x134)) (not (= (x11 x68 x68) x139))) (not (= x125 (x11 x18 x18)))) (not (= (x11 x117 x117) x140))) (not (= x131 (x11 x19 x19)))) (or (or (and (and (not (= x140 (x11 x22 x22))) (and (not (= (x11 x40 x40) x125)) (and (not (= (x11 x43 x43) x134)) (not (= (x11 x58 x58) x139))))) (not (= x131 (x11 x55 x55)))) (and (and (not (= x140 (x11 x62 x62))) (and (not (= x125 (x11 x9 x9))) (and (not (= (x11 x94 x94) x134)) (not (= x139 (x11 x80 x80)))))) (not (= x131 (x11 x119 x119))))) (and (and (not (= x140 (x11 x85 x85))) (and (and (not (= x139 (x11 x156 x156))) (not (= x134 (x11 x108 x108)))) (not (= (x11 x25 x25) x125)))) (not (= x131 (x11 x109 x109)))))))))
(assert (not (and (= x134 (x11 x131 x131)) (and (= (x11 x131 x140) x139) (and (and (and (and (and (= (x11 x140 x140) x125) (and (and (= (x11 x140 x139) x134) (and (= (x11 x140 x134) x140) (and (= x131 (x11 x125 x131)) (and (and (= x125 (x11 x125 x125)) (and (= x139 (x11 x125 x139)) (and (and (and (= (x11 x139 x140) x134) (and (and (= x140 (x11 x139 x139)) (and (and (= (x11 x134 x131) x140) (and (and (= (x11 x134 x125) x134) (and (= (x11 x134 x139) x125) (= (x11 x134 x134) x139))) (= x131 (x11 x134 x140)))) (= x131 (x11 x139 x134)))) (= (x11 x139 x125) x139))) (= x125 (x11 x139 x131))) (= x134 (x11 x125 x134))))) (= (x11 x125 x140) x140))))) (= x131 (x11 x140 x125)))) (= (x11 x140 x131) x139)) (= (x11 x131 x134) x125)) (= x131 (x11 x131 x139))) (= x140 (x11 x131 x125)))))))
(assert (and (and (and (or (= x131 (x11 x131 (x11 x125 x131))) (or (or (= x125 (x11 x125 (x11 x125 x125))) (or (= (x11 x139 (x11 x125 x139)) x139) (= (x11 x134 (x11 x125 x134)) x134))) (= x140 (x11 x140 (x11 x125 x140))))) (and (or (or (or (or (= (x11 x139 (x11 x139 x139)) x139) (= (x11 x134 (x11 x139 x134)) x134)) (= x125 (x11 x125 (x11 x139 x125)))) (= (x11 x140 (x11 x139 x140)) x140)) (= x131 (x11 x131 (x11 x139 x131)))) (or (= x131 (x11 x131 (x11 x134 x131))) (or (or (or (= x134 (x11 x134 (x11 x134 x134))) (= x139 (x11 x139 (x11 x134 x139)))) (= (x11 x125 (x11 x134 x125)) x125)) (= x140 (x11 x140 (x11 x134 x140))))))) (or (= x131 (x11 x131 (x11 x140 x131))) (or (= x140 (x11 x140 (x11 x140 x140))) (or (= (x11 x125 (x11 x140 x125)) x125) (or (= x139 (x11 x139 (x11 x140 x139))) (= x134 (x11 x134 (x11 x140 x134)))))))) (or (= x131 (x11 x131 (x11 x131 x131))) (or (= x140 (x11 x140 (x11 x131 x140))) (or (= x125 (x11 x125 (x11 x131 x125))) (or (= (x11 x139 (x11 x131 x139)) x139) (= x134 (x11 x134 (x11 x131 x134)))))))))
(assert (or (and (not (= x131 (x11 (x11 x131 x131) x131))) (and (and (and (not (= (x11 (x11 x131 x134) x131) x134)) (not (= x139 (x11 (x11 x131 x139) x131)))) (not (= x125 (x11 (x11 x131 x125) x131)))) (not (= x140 (x11 (x11 x131 x140) x131))))) (or (and (and (not (= (x11 (x11 x140 x140) x140) x140)) (and (and (not (= (x11 (x11 x140 x134) x140) x134)) (not (= x139 (x11 (x11 x140 x139) x140)))) (not (= x125 (x11 (x11 x140 x125) x140))))) (not (= (x11 (x11 x140 x131) x140) x131))) (or (or (and (and (not (= x140 (x11 (x11 x139 x140) x139))) (and (not (= (x11 (x11 x139 x125) x139) x125)) (and (not (= x139 (x11 (x11 x139 x139) x139))) (not (= (x11 (x11 x139 x134) x139) x134))))) (not (= x131 (x11 (x11 x139 x131) x139)))) (and (not (= x131 (x11 (x11 x134 x131) x134))) (and (and (and (not (= (x11 (x11 x134 x134) x134) x134)) (not (= x139 (x11 (x11 x134 x139) x134)))) (not (= x125 (x11 (x11 x134 x125) x134)))) (not (= (x11 (x11 x134 x140) x134) x140))))) (and (not (= x131 (x11 (x11 x125 x131) x125))) (and (not (= x140 (x11 (x11 x125 x140) x125))) (and (not (= (x11 (x11 x125 x125) x125) x125)) (and (not (= (x11 (x11 x125 x134) x125) x134)) (not (= x139 (x11 (x11 x125 x139) x125)))))))))))
(assert (let ((x55 (x11 x131 x139)) (x88 (x11 x140 x131)) (x19 (x11 x131 x140)) (x73 (x11 x134 x131)) (x108 (x11 x134 x125)) (x156 (x11 x139 x125)) (x22 (x11 x140 x139)) (x80 (x11 x139 x134)) (x94 (x11 x134 x134)) (x58 (x11 x139 x139)) (x85 (x11 x140 x125)) (x97 (x11 x134 x140)) (x6 (x11 x139 x131)) (x68 (x11 x139 x140)) (x109 (x11 x131 x125)) (x117 (x11 x140 x140)) (x62 (x11 x140 x134)) (x43 (x11 x134 x139)) (x119 (x11 x131 x134)) (x25 (x11 x125 x125)) (x40 (x11 x125 x139)) (x39 (x11 x125 x131)) (x9 (x11 x125 x134)) (x91 (x11 x131 x131)) (x18 (x11 x125 x140))) (and (and (and (not (= x88 x91)) (and (and (not (= x88 x39)) (and (and (and (and (and (not (= x73 x88)) (and (not (= x6 x73)) (not (= x73 x39)))) (not (= x73 x91))) (not (= x6 x39))) (not (= x88 x6))) (not (= x6 x91)))) (not (= x39 x91)))) (and (and (and (not (= x85 x109)) (and (and (and (and (not (= x156 x85)) (and (not (= x25 x156)) (and (and (and (not (= x156 x108)) (not (= x108 x25))) (not (= x85 x108))) (not (= x108 x109))))) (not (= x156 x109))) (not (= x25 x85))) (not (= x109 x25)))) (and (and (not (= x62 x119)) (and (not (= x9 x119)) (and (and (not (= x80 x119)) (and (not (= x62 x80)) (and (and (and (not (= x94 x62)) (and (not (= x9 x94)) (not (= x94 x80)))) (not (= x94 x119))) (not (= x80 x9))))) (not (= x62 x9))))) (and (not (= x55 x22)) (and (not (= x40 x55)) (and (not (= x40 x22)) (and (and (and (not (= x40 x58)) (and (and (not (= x43 x22)) (and (not (= x40 x43)) (not (= x58 x43)))) (not (= x43 x55)))) (not (= x22 x58))) (not (= x58 x55)))))))) (and (and (not (= x19 x18)) (and (and (and (and (not (= x68 x18)) (and (and (not (= x97 x117)) (and (not (= x97 x68)) (not (= x18 x97)))) (not (= x97 x19)))) (not (= x68 x117))) (not (= x19 x68))) (not (= x117 x18)))) (not (= x19 x117))))) (and (and (and (and (and (and (and (and (not (= x22 x85)) (and (and (and (not (= x22 x62)) (not (= x62 x85))) (not (= x117 x62))) (not (= x62 x88)))) (not (= x22 x117))) (not (= x88 x22))) (not (= x117 x85))) (not (= x88 x85))) (not (= x88 x117))) (and (and (not (= x18 x39)) (and (not (= x25 x39)) (and (and (not (= x39 x40)) (and (not (= x18 x40)) (and (and (and (and (not (= x9 x25)) (not (= x9 x40))) (not (= x9 x18))) (not (= x39 x9))) (not (= x40 x25))))) (not (= x25 x18))))) (and (and (not (= x73 x97)) (and (not (= x73 x108)) (and (not (= x97 x108)) (and (not (= x43 x73)) (and (and (and (not (= x73 x94)) (and (not (= x94 x97)) (and (not (= x108 x94)) (not (= x94 x43))))) (not (= x108 x43))) (not (= x97 x43))))))) (and (and (and (not (= x68 x156)) (and (not (= x6 x58)) (and (and (not (= x156 x58)) (and (not (= x6 x80)) (and (not (= x80 x68)) (and (not (= x156 x80)) (not (= x58 x80)))))) (not (= x58 x68))))) (not (= x156 x6))) (not (= x6 x68)))))) (and (and (not (= x109 x91)) (and (not (= x19 x109)) (and (not (= x55 x91)) (and (and (not (= x55 x109)) (and (not (= x119 x91)) (and (not (= x19 x119)) (and (not (= x119 x109)) (not (= x55 x119)))))) (not (= x55 x19)))))) (not (= x19 x91)))))))
(assert (let ((x6 (x11 x139 x131)) (x60 (x11 x131 x139)) (x75 (x11 x131 x140)) (x127 (x11 x131 x131)) (x119 (x11 x134 x140)) (x43 (x11 x134 x131)) (x17 (x11 x125 x125)) (x22 (x11 x125 x134)) (x9 (x11 x134 x139)) (x19 (x11 x139 x125)) (x80 (x11 x134 x134)) (x73 (x11 x139 x140)) (x62 (x11 x134 x125)) (x55 (x11 x140 x134)) (x103 (x11 x140 x140)) (x67 (x11 x140 x131)) (x144 (x11 x140 x125)) (x14 (x11 x131 x125)) (x69 (x11 x125 x131)) (x40 (x11 x139 x134)) (x108 (x11 x131 x134)) (x155 (x11 x140 x139)) (x117 (x11 x139 x139)) (x54 (x11 x125 x140)) (x91 (x11 x125 x139))) (let ((x90 (= x140 x117)) (x21 (= x131 x54)) (x141 (= x140 x17)) (x95 (= x131 x9)) (x97 (= x9 x134)) (x8 (= x108 x131)) (x147 (= x6 x125)) (x78 (= x134 x19)) (x32 (= x22 x125)) (x145 (= x155 x134)) (x70 (= x6 x140)) (x81 (= x139 x127)) (x50 (= x134 x67)) (x27 (= x69 x125)) (x59 (= x55 x139)) (x71 (= x140 x19)) (x136 (= x140 x54)) (x106 (= x140 x14)) (x152 (= x131 x103)) (x23 (= x125 x67)) (x129 (= x139 x103)) (x29 (= x139 x17)) (x116 (= x131 x73)) (x149 (= x140 x69)) (x79 (= x19 x139)) (x143 (= x54 x139)) (x15 (= x139 x75)) (x126 (= x139 x6)) (x4 (= x73 x125)) (x88 (= x117 x139)) (x107 (= x119 x134)) (x157 (= x69 x134)) (x130 (= x125 x117)) (x10 (= x73 x140)) (x105 (= x155 x140)) (x72 (= x43 x140)) (x121 (= x91 x131)) (x158 (= x134 x144)) (x74 (= x62 x134)) (x1 (= x139 x14)) (x34 (= x54 x134)) (x142 (= x67 x139)) (x94 (= x134 x80)) (x76 (= x60 x139)) (x99 (= x67 x131)) (x132 (= x43 x139)) (x115 (= x134 x127)) (x44 (= x134 x22)) (x113 (= x140 x91)) (x112 (= x60 x131)) (x20 (= x19 x131)) (x93 (= x139 x69)) (x102 (= x125 x62)) (x36 (= x17 x131)) (x153 (= x125 x144)) (x89 (= x103 x125)) (x84 (= x140 x103)) (x109 (= x40 x134)) (x16 (= x140 x119)) (x28 (= x54 x125)) (x68 (= x117 x134)) (x5 (= x14 x134)) (x124 (= x19 x125)) (x52 (= x108 x139)) (x26 (= x91 x134)) (x122 (= x9 x125)) (x51 (= x134 x103)) (x92 (= x155 x125)) (x156 (= x80 x125)) (x151 (= x6 x131)) (x31 (= x62 x131)) (x104 (= x140 x127)) (x25 (= x140 x80)) (x7 (= x119 x125)) (x135 (= x134 x108)) (x56 (= x55 x140)) (x133 (= x125 x60)) (x49 (= x75 x134)) (x39 (= x139 x9)) (x66 (= x134 x73)) (x83 (= x155 x139)) (x2 (= x140 x144)) (x101 (= x125 x40)) (x82 (= x125 x55)) (x35 (= x60 x140)) (x45 (= x144 x131)) (x85 (= x131 x80)) (x33 (= x134 x60)) (x41 (= x131 x55)) (x159 (= x75 x125)) (x24 (= x131 x69)) (x47 (= x140 x108)) (x38 (= x139 x91)) (x61 (= x125 x43)) (x57 (= x22 x139)) (x146 (= x17 x134)) (x150 (= x43 x131)) (x65 (= x62 x139)) (x138 (= x22 x140)) (x58 (= x139 x80)) (x3 (= x6 x134)) (x37 (= x62 x140)) (x98 (= x131 x40)) (x13 (= x134 x43)) (x118 (= x17 x125)) (x154 (= x131 x155)) (x64 (= x139 x144)) (x114 (= x119 x139)) (x96 (= x75 x140)) (x12 (= x131 x127)) (x120 (= x131 x75)) (x128 (= x127 x125)) (x86 (= x140 x40)) (x77 (= x125 x108)) (x87 (= x125 x14)) (x46 (= x140 x67)) (x18 (= x139 x40)) (x110 (= x91 x125)) (x42 (= x117 x131)) (x111 (= x131 x14)) (x100 (= x22 x131)) (x148 (= x134 x55)) (x53 (= x119 x131)) (x123 (= x73 x139)) (x137 (= x9 x140))) (and (and (and (and (and (and (and (or (or (or x138 (or x86 x25)) x56) x47) (or (or (or x37 (or x137 x25)) x16) x72)) (and (and (or (or x7 (or (or x122 x156) x102)) x61) (or (or x82 (or (or x156 x101) x32)) x77)) (and (and (or x132 (or x114 (or (or x58 x39) x65))) (or (or (or (or x58 x18) x57) x59) x52)) (and (or (or x148 (or x44 (or x109 x94))) x135) (or (or x107 (or (or x97 x94) x74)) x13))))) (and (or (or (or x31 (or x85 x95)) x53) x150) (or (or x41 (or (or x98 x85) x100)) x8))) (and (and (or (or x116 (or x20 (or x42 x98))) x151) (or (or (or (or x95 x42) x121) x154) x112)) (and (and (and (or (or x92 (or (or x130 x122) x110)) x133) (or (or (or (or x130 x101) x124) x4) x147)) (and (and (or (or (or x26 (or x97 x68)) x145) x33) (or (or (or x78 (or x109 x68)) x66) x3)) (and (or x126 (or x123 (or x79 (or x88 x18)))) (or x76 (or (or x38 (or x88 x39)) x83))))) (and (or x70 (or x10 (or (or x86 x90) x71))) (or x35 (or (or (or x90 x137) x113) x105)))))) (and (and (or (or (or x36 (or x20 x31)) x45) x111) (or (or x21 (or (or x121 x100) x36)) x24)) (and (and (and (and (or (or x64 (or (or x65 x79) x29)) x1) (or (or (or x29 (or x57 x38)) x143) x93)) (and (or x5 (or (or (or x74 x78) x146) x158)) (or (or (or (or x26 x44) x146) x34) x157))) (and (or x27 (or (or (or x110 x32) x118) x28)) (or (or x153 (or (or x102 x124) x118)) x87))) (and (or (or (or (or x37 x71) x141) x2) x106) (or (or (or x141 (or x138 x113)) x136) x149))))) (and (and (or (or (or x45 (or x154 x41)) x152) x99) (or x120 (or x152 (or (or x53 x116) x21)))) (and (and (and (or x23 (or x89 (or x153 (or x92 x82)))) (or (or (or x28 (or x7 x4)) x89) x159)) (and (and (or x142 (or x129 (or (or x59 x83) x64))) (or (or x129 (or x143 (or x123 x114))) x15)) (and (or x50 (or x51 (or x158 (or x148 x145)))) (or x49 (or (or x34 (or x107 x66)) x51))))) (and (or (or (or x2 (or x105 x56)) x84) x46) (or x96 (or x84 (or x136 (or x16 x10)))))))) (and (and (or x12 (or (or (or x151 x150) x24) x99)) (or x12 (or x120 (or (or x8 x112) x111)))) (and (and (or (or (or (or x47 x35) x106) x96) x104) (or x104 (or x46 (or (or x72 x70) x149)))) (and (and (or x128 (or (or (or x147 x61) x27) x23)) (or (or (or (or x133 x77) x87) x159) x128)) (and (and (or x115 (or (or (or x13 x3) x157) x50)) (or x115 (or (or x5 (or x33 x135)) x49))) (and (or (or (or (or x126 x132) x93) x142) x81) (or (or x15 (or x1 (or x52 x76))) x81))))))))))
(assert (and (and (and (not (= x140 x125)) (and (and (not (= x140 x139)) (and (and (and (and (not (= x134 x125)) (not (= x134 x139))) (not (= x134 x140))) (not (= x131 x134))) (not (= x139 x125)))) (not (= x139 x131)))) (not (= x125 x131))) (not (= x140 x131))))
(assert (and (and (and (= x125 (x11 x139 x131)) (= (x11 x134 x134) x139)) (= (x11 x134 x131) x140)) (= x131 (x11 x139 x134))))
(assert (or (= (x11 x131 x131) x131) (or (= (x11 x140 x140) x140) (or (= (x11 x125 x125) x125) (or (= x139 (x11 x139 x139)) (= (x11 x134 x134) x134))))))
(assert (or (and (and (not (= x131 (x11 x140 (x11 x131 x140)))) (and (and (not (= (x11 x139 (x11 x131 x139)) x131)) (not (= (x11 x134 (x11 x131 x134)) x131))) (not (= x131 (x11 x125 (x11 x131 x125)))))) (not (= x131 (x11 x131 (x11 x131 x131))))) (or (and (not (= (x11 x131 (x11 x140 x131)) x140)) (and (not (= x140 (x11 x140 (x11 x140 x140)))) (and (and (not (= (x11 x134 (x11 x140 x134)) x140)) (not (= x140 (x11 x139 (x11 x140 x139))))) (not (= (x11 x125 (x11 x140 x125)) x140))))) (or (and (not (= x125 (x11 x131 (x11 x125 x131)))) (and (not (= (x11 x140 (x11 x125 x140)) x125)) (and (and (not (= x125 (x11 x139 (x11 x125 x139)))) (not (= (x11 x134 (x11 x125 x134)) x125))) (not (= (x11 x125 (x11 x125 x125)) x125))))) (or (and (not (= x134 (x11 x131 (x11 x134 x131)))) (and (not (= x134 (x11 x140 (x11 x134 x140)))) (and (not (= (x11 x125 (x11 x134 x125)) x134)) (and (not (= x134 (x11 x139 (x11 x134 x139)))) (not (= (x11 x134 (x11 x134 x134)) x134)))))) (and (not (= x139 (x11 x131 (x11 x139 x131)))) (and (and (and (not (= x139 (x11 x139 (x11 x139 x139)))) (not (= x139 (x11 x134 (x11 x139 x134))))) (not (= (x11 x125 (x11 x139 x125)) x139))) (not (= (x11 x140 (x11 x139 x140)) x139)))))))))
(assert (let ((x9 (x11 x139 x139)) (x43 (x11 x131 x131)) (x80 (x11 x134 x134)) (x62 (x11 x125 x125)) (x119 (x11 x140 x140))) (let ((x40 (= x9 x139)) (x25 (= x125 x62)) (x109 (= x43 x131)) (x94 (= x134 x80)) (x85 (= x140 x119))) (let ((x55 (or (or (= x125 x119) (or x25 (or (= x125 x9) (= x125 x80)))) (= x43 x125))) (x58 (or (= x43 x134) (or (or (= x134 x62) (or (= x134 x9) x94)) (= x134 x119)))) (x156 (or x109 (or (= x119 x131) (or (or (= x80 x131) (= x131 x9)) (= x62 x131))))) (x108 (or (= x43 x140) (or x85 (or (= x140 x62) (or (= x140 x9) (= x80 x140)))))) (x22 (or (or (or (or (= x80 x139) x40) (= x62 x139)) (= x119 x139)) (= x43 x139)))) (and (and (and (and (and (and (or (not (= (x11 x139 x140) x139)) x108) (and (and (or x22 (not x40)) (or (not (= (x11 x139 x134) x139)) x58)) (or (not (= (x11 x139 x125) x139)) x55))) (or x156 (not (= x139 (x11 x139 x131))))) (and (or (not (= x134 (x11 x134 x131))) x156) (and (or (not (= (x11 x134 x140) x134)) x108) (and (and (or (not (= (x11 x134 x139) x134)) x22) (or x58 (not x94))) (or x55 (not (= (x11 x134 x125) x134))))))) (and (and (or (not (= (x11 x125 x140) x125)) x108) (and (and (or x58 (not (= (x11 x125 x134) x125))) (or x22 (not (= (x11 x125 x139) x125)))) (or x55 (not x25)))) (or (not (= (x11 x125 x131) x125)) x156))) (and (or (not (= x140 (x11 x140 x131))) x156) (and (and (or x55 (not (= x140 (x11 x140 x125)))) (and (or (not (= x140 (x11 x140 x134))) x58) (or (not (= x140 (x11 x140 x139))) x22))) (or (not x85) x108)))) (and (and (or x108 (not (= x131 (x11 x131 x140)))) (and (and (or (not (= x131 (x11 x131 x139))) x22) (or (not (= x131 (x11 x131 x134))) x58)) (or x55 (not (= x131 (x11 x131 x125)))))) (or x156 (not x109))))))))
(assert (or (or (or (and (not (= (x11 (x11 x131 x125) x131) x125)) (and (not (= x125 (x11 (x11 x140 x125) x140))) (and (not (= x125 (x11 (x11 x125 x125) x125))) (and (not (= (x11 (x11 x139 x125) x139) x125)) (not (= x125 (x11 (x11 x134 x125) x134))))))) (or (and (not (= (x11 (x11 x131 x139) x131) x139)) (and (and (and (not (= x139 (x11 (x11 x134 x139) x134))) (not (= (x11 (x11 x139 x139) x139) x139))) (not (= (x11 (x11 x125 x139) x125) x139))) (not (= x139 (x11 (x11 x140 x139) x140))))) (and (not (= x134 (x11 (x11 x131 x134) x131))) (and (and (not (= (x11 (x11 x125 x134) x125) x134)) (and (not (= x134 (x11 (x11 x134 x134) x134))) (not (= (x11 (x11 x139 x134) x139) x134)))) (not (= x134 (x11 (x11 x140 x134) x140))))))) (and (and (not (= (x11 (x11 x140 x140) x140) x140)) (and (not (= x140 (x11 (x11 x125 x140) x125))) (and (not (= (x11 (x11 x134 x140) x134) x140)) (not (= x140 (x11 (x11 x139 x140) x139)))))) (not (= x140 (x11 (x11 x131 x140) x131))))) (and (and (and (and (not (= x131 (x11 (x11 x139 x131) x139))) (not (= (x11 (x11 x134 x131) x134) x131))) (not (= x131 (x11 (x11 x125 x131) x125)))) (not (= x131 (x11 (x11 x140 x131) x140)))) (not (= x131 (x11 (x11 x131 x131) x131))))))
(check-sat)
(exit)
